unsat
( c107
  c1130
  c1165
  c118
  c1186
  c1196
  c1207
  c1217
  c1229
  c1241
  c1250
  c1262
  c1272
  c128
  c1287
  c140
  c1493
  c152
  c1528
  c1549
  c1559
  c1570
  c1580
  c1592
  c16
  c1604
  c161
  c1613
  c1625
  c1635
  c1650
  c17
  c173
  c18
  c183
  c1856
  c1891
  c1912
  c1922
  c1933
  c1943
  c1955
  c1967
  c1976
  c198
  c1988
  c1998
  c2013
  c2219
  c2254
  c2275
  c2285
  c2296
  c2306
  c2318
  c2330
  c2339
  c2351
  c2361
  c2376
  c2582
  c2610
  c2626
  c2635
  c2646
  c2655
  c2666
  c2681
  c2693
  c2703
  c2718
  c2867
  c404
  c41
  c439
  c460
  c470
  c481
  c491
  c503
  c515
  c524
  c536
  c546
  c561
  c76
  c767
  c802
  c823
  c833
  c844
  c854
  c866
  c878
  c887
  c899
  c909
  c924
  c97 )
